ipopt.out

******************************************************************************
This program contains Ipopt, a library for large-scale nonlinear optimization.
 Ipopt is released as open source code under the Eclipse Public License (EPL).
         For more information visit http://projects.coin-or.org/Ipopt
******************************************************************************

This is Ipopt version trunk, running with linear solver mumps.
NOTE: Other linear solvers might be more efficient (see Ipopt documentation).

Number of nonzeros in equality constraint Jacobian...:     2880
Number of nonzeros in inequality constraint Jacobian.:        0
Number of nonzeros in Lagrangian Hessian.............:        0

Total number of variables............................:       64
                     variables with only lower bounds:        0
                variables with lower and upper bounds:       64
                     variables with only upper bounds:        0
Total number of equality constraints.................:       45
Total number of inequality constraints...............:        0
        inequality constraints with only lower bounds:        0
   inequality constraints with lower and upper bounds:        0
        inequality constraints with only upper bounds:        0

iter    objective    inf_pr   inf_du lg(mu)  ||d||  lg(rg) alpha_du alpha_pr  ls
   0  3.0000000e+00 4.54e+00 1.12e-01   0.0 0.00e+00    -  0.00e+00 0.00e+00   0
Warning: Cutting back alpha due to evaluation error
   1  2.1882465e+00 1.42e+00 6.89e+00   0.2 1.62e+00    -  9.99e-01 5.00e-01h  2
Warning: Cutting back alpha due to evaluation error
   2  2.2853940e+00 7.37e-01 3.69e+00  -1.4 3.75e-01    -  9.24e-01 5.00e-01h  2
Warning: Cutting back alpha due to evaluation error
Warning: Cutting back alpha due to evaluation error
Warning: Cutting back alpha due to evaluation error
Warning: Cutting back alpha due to evaluation error
Warning: Cutting back alpha due to evaluation error
   3  2.2738011e+00 7.14e-01 3.63e+00  -1.1 9.80e-01    -  9.90e-01 3.12e-02h  6
Warning: Cutting back alpha due to evaluation error
Warning: Cutting back alpha due to evaluation error
Warning: Cutting back alpha due to evaluation error
Warning: Cutting back alpha due to evaluation error
Warning: Cutting back alpha due to evaluation error
Warning: Cutting back alpha due to evaluation error
Warning: Cutting back alpha due to evaluation error
   4  2.2706808e+00 7.08e-01 3.62e+00  -1.9 9.92e-01    -  1.00e+00 7.81e-03h  8
Warning: Cutting back alpha due to evaluation error
   5  2.0586326e+00 2.49e-01 2.22e+00  -2.2 1.02e+00    -  1.00e+00 5.00e-01h  2
Warning: Cutting back alpha due to evaluation error
   6  2.1285080e+00 1.28e-01 1.65e+00  -3.1 1.40e-01    -  1.00e+00 5.00e-01h  2
Warning: Cutting back alpha due to evaluation error
   7  2.1391154e+00 6.39e-02 1.71e+00  -4.2 1.95e-01    -  1.00e+00 5.00e-01h  2
   8  1.7286772e+00 2.78e-01 3.29e+00  -4.9 1.03e+00    -  1.00e+00 1.00e+00h  1
Warning: Cutting back alpha due to evaluation error
Warning: Cutting back alpha due to evaluation error
Warning: Cutting back alpha due to evaluation error
Warning: Cutting back alpha due to evaluation error
   9  1.7063257e+00 2.61e-01 1.33e+01  -5.6 6.97e-01    -  1.00e+00 6.25e-02h  5
Warning: Cutting back alpha due to evaluation error
Warning: Cutting back alpha due to evaluation error
iter    objective    inf_pr   inf_du lg(mu)  ||d||  lg(rg) alpha_du alpha_pr  ls
  10  1.2840101e+00 5.24e-01 2.50e+01  -4.8 4.05e+01    -  1.00e+00 1.93e-02f  3
Warning: Cutting back alpha due to evaluation error
Warning: Cutting back alpha due to evaluation error
  11  1.1565448e+00 4.17e-01 3.55e+02  -5.2 1.35e+00    -  1.00e+00 2.50e-01h  3
Warning: Cutting back alpha due to evaluation error
  12  1.1640862e+00 2.23e-01 8.79e+01  -6.1 6.51e-01    -  1.00e+00 5.00e-01h  2
Warning: Cutting back alpha due to evaluation error
  13  1.2060675e+00 1.16e-01 5.69e+01  -7.1 2.83e-01    -  1.00e+00 5.00e-01h  2
Warning: Cutting back alpha due to evaluation error
  14  1.2315999e+00 6.01e-02 7.44e+01  -8.2 2.31e-01    -  1.00e+00 5.00e-01h  2
Warning: Cutting back alpha due to evaluation error
Warning: Cutting back alpha due to evaluation error
Warning: Cutting back alpha due to evaluation error
  15  1.2352565e+00 5.26e-02 6.58e+01  -9.7 1.36e-01    -  1.00e+00 1.25e-01h  4
  16  1.2603129e+00 6.46e-03 1.76e+00 -11.0 1.79e-01    -  1.00e+00 1.00e+00h  1
  17  1.2613512e+00 7.38e-04 7.53e+01 -11.0 4.46e-02    -  1.00e+00 1.00e+00h  1
  18  1.2610393e+00 3.40e-03 1.10e+02 -11.0 9.37e-02    -  1.00e+00 1.00e+00h  1
  19  1.2541277e+00 8.91e-01 1.66e+03 -11.0 1.77e+00    -  1.00e+00 1.00e+00h  1
Warning: Cutting back alpha due to evaluation error
iter    objective    inf_pr   inf_du lg(mu)  ||d||  lg(rg) alpha_du alpha_pr  ls
  20  1.2129253e+00 7.23e-01 1.22e+03 -11.0 2.06e+00    -  1.00e+00 5.00e-01h  2
Warning: Cutting back alpha due to evaluation error
  21  1.2119135e+00 3.98e-01 8.76e+02 -11.0 6.52e-01    -  1.00e+00 5.00e-01h  2
  22  1.2412226e+00 1.34e-01 4.10e+01 -11.0 6.40e-01    -  1.00e+00 1.00e+00h  1
  23  1.2530648e+00 4.26e-02 1.19e+02 -11.0 3.48e-01    -  1.00e+00 1.00e+00h  1
Warning: Cutting back alpha due to evaluation error
  24  1.2526306e+00 2.16e-02 4.32e+01 -11.0 2.76e-01    -  1.00e+00 5.00e-01h  2
Warning: Cutting back alpha due to evaluation error
  25  1.2522394e+00 1.12e-02 5.13e+01 -11.0 3.42e-01    -  1.00e+00 5.00e-01h  2
  26  1.2480036e+00 1.78e-02 8.64e+01 -11.0 7.33e-01    -  1.00e+00 1.00e+00h  1
Warning: Cutting back alpha due to evaluation error
Warning: Cutting back alpha due to evaluation error
Warning: Cutting back alpha due to evaluation error
Warning: Cutting back alpha due to evaluation error
Warning: Cutting back alpha due to evaluation error
Warning: Cutting back alpha due to evaluation error
  27  1.2479831e+00 1.75e-02 8.38e+01 -11.0 1.57e+00    -  1.00e+00 1.56e-02h  7
  28  1.2478633e+00 3.85e-02 1.18e+01 -11.0 3.85e-01    -  1.00e+00 1.00e+00h  1
Warning: Cutting back alpha due to evaluation error
  29  1.2490648e+00 2.24e-02 1.78e+01 -11.0 2.57e-01    -  1.00e+00 5.00e-01h  2
iter    objective    inf_pr   inf_du lg(mu)  ||d||  lg(rg) alpha_du alpha_pr  ls
  30  1.2525795e+00 1.35e-03 1.43e+01 -11.0 9.55e-02    -  1.00e+00 1.00e+00h  1
Warning: Cutting back alpha due to evaluation error
Warning: Cutting back alpha due to evaluation error
  31  1.2527439e+00 1.06e-03 1.11e+01 -11.0 4.21e-02    -  1.00e+00 2.50e-01h  3
  32  1.2532654e+00 1.02e-03 4.55e-01 -11.0 5.08e-02    -  1.00e+00 1.00e+00h  1
  33  1.2533255e+00 1.14e-04 2.39e-01 -11.0 1.64e-02    -  1.00e+00 1.00e+00h  1
  34  1.2533317e+00 1.39e-05 1.48e-01 -11.0 6.33e-03    -  1.00e+00 1.00e+00h  1
Warning: Cutting back alpha due to evaluation error
  35  1.2533337e+00 8.29e-06 1.05e-01 -11.0 9.04e-03    -  1.00e+00 5.00e-01h  2
  36  1.2533081e+00 3.28e-03 7.06e-01 -11.0 9.09e-02    -  1.00e+00 1.00e+00h  1
  37  1.2531653e+00 7.85e-02 1.22e+00 -11.0 4.45e-01    -  1.00e+00 1.00e+00h  1
Warning: Cutting back alpha due to evaluation error
Warning: Cutting back alpha due to evaluation error
  38  1.2530407e+00 6.11e-02 3.12e-01 -11.0 3.07e-01    -  1.00e+00 2.50e-01h  3
  39  1.2527031e+00 6.28e-02 4.09e+00 -11.0 4.02e-01    -  1.00e+00 1.00e+00h  1
Warning: Cutting back alpha due to evaluation error
Warning: Cutting back alpha due to evaluation error
Warning: Cutting back alpha due to evaluation error
Warning: Cutting back alpha due to evaluation error
iter    objective    inf_pr   inf_du lg(mu)  ||d||  lg(rg) alpha_du alpha_pr  ls
  40  1.2526666e+00 5.89e-02 3.68e+00 -11.0 1.24e-01    -  1.00e+00 6.25e-02h  5
  41  1.2527133e+00 5.79e-03 1.50e+00 -11.0 1.20e-01    -  1.00e+00 1.00e+00h  1
Warning: Cutting back alpha due to evaluation error
Warning: Cutting back alpha due to evaluation error
Warning: Cutting back alpha due to evaluation error
Warning: Cutting back alpha due to evaluation error
  42  1.2527500e+00 5.43e-03 1.41e+00 -11.0 2.44e-02    -  1.00e+00 6.25e-02h  5
Warning: Cutting back alpha due to evaluation error
Warning: Cutting back alpha due to evaluation error
Warning: Cutting back alpha due to evaluation error
Warning: Cutting back alpha due to evaluation error
Warning: Cutting back alpha due to evaluation error
Warning: Cutting back alpha due to evaluation error
Warning: Cutting back alpha due to evaluation error
Warning: Cutting back alpha due to evaluation error
Warning: Cutting back alpha due to evaluation error
Warning: Cutting back alpha due to evaluation error
Warning: Cutting back alpha due to evaluation error
  43  1.2527503e+00 5.43e-03 1.41e+00 -11.0 2.28e-02    -  1.00e+00 4.88e-04h 12
Warning: Cutting back alpha due to evaluation error
Warning: Cutting back alpha due to evaluation error
Warning: Cutting back alpha due to evaluation error
Warning: Cutting back alpha due to evaluation error
Warning: Cutting back alpha due to evaluation error
Warning: Cutting back alpha due to evaluation error
Warning: Cutting back alpha due to evaluation error
Warning: Cutting back alpha due to evaluation error
Warning: Cutting back alpha due to evaluation error
Warning: Cutting back alpha due to evaluation error
Warning: Cutting back alpha due to evaluation error
Warning: Cutting back alpha due to evaluation error
Warning: Cutting back alpha due to evaluation error
Warning: Cutting back alpha due to evaluation error
Warning: Cutting back alpha due to evaluation error
Warning: Cutting back alpha due to evaluation error
Warning: Cutting back alpha due to evaluation error
Warning: Evaluation error during soft restoration phase step.
Warning: Evaluation error during soft restoration phase step.
Warning: Evaluation error during soft restoration phase step.
  44r 1.2527503e+00 5.43e-03 9.99e+02  -2.3 0.00e+00    -  0.00e+00 4.77e-07R 22
  45r 1.2526244e+00 9.38e-04 9.85e+02  -0.7 4.80e+00    -  2.11e-01 1.03e-03f  1
  46  1.2531699e+00 8.03e-04 1.41e+03 -11.0 4.48e-02    -  1.00e+00 1.00e+00h  1
Warning: SOC step rejected due to evaluation error
  47  1.2531994e+00 7.22e-04 1.20e+03 -11.0 6.93e-02    -  1.00e+00 2.50e-01h  3
  48  1.2533095e+00 2.32e-05 3.70e+01 -11.0 7.59e-03    -  1.00e+00 1.00e+00h  1
Warning: Cutting back alpha due to evaluation error
  49  1.2533103e+00 2.35e-05 1.33e+01 -11.0 1.09e-02    -  1.00e+00 5.00e-01h  2
Warning: Cutting back alpha due to evaluation error
iter    objective    inf_pr   inf_du lg(mu)  ||d||  lg(rg) alpha_du alpha_pr  ls
  50  1.2533113e+00 1.95e-05 3.95e+00 -11.0 8.80e-03    -  1.00e+00 5.00e-01h  2
Warning: Cutting back alpha due to evaluation error
  51  1.2533114e+00 1.94e-05 4.66e+00 -11.0 1.96e-02    -  1.00e+00 1.25e-01h  4
Warning: Cutting back alpha due to evaluation error
  52  1.2533120e+00 1.46e-05 5.51e+00 -11.0 7.01e-03    -  1.00e+00 5.00e-01h  2
  53  1.2533125e+00 3.74e-06 4.10e+00 -11.0 3.06e-03    -  1.00e+00 1.00e+00h  1
  54  1.2533125e+00 4.33e-06 5.33e-02 -11.0 3.30e-03    -  1.00e+00 1.00e+00h  1
  55  1.2533126e+00 1.34e-06 1.69e+00 -11.0 1.83e-03    -  1.00e+00 1.00e+00h  1
Warning: Cutting back alpha due to evaluation error
Warning: Cutting back alpha due to evaluation error
Warning: Cutting back alpha due to evaluation error
  56  1.2533126e+00 1.19e-06 1.49e+00 -11.0 1.65e-03    -  1.00e+00 1.25e-01h  4
Warning: Cutting back alpha due to evaluation error
Warning: Cutting back alpha due to evaluation error
Warning: Cutting back alpha due to evaluation error
Warning: Cutting back alpha due to evaluation error
Warning: Cutting back alpha due to evaluation error
Warning: Cutting back alpha due to evaluation error
  57  1.2533126e+00 1.17e-06 1.46e+00 -11.0 1.58e-03    -  1.00e+00 1.56e-02h  7
Warning: Cutting back alpha due to evaluation error
Warning: Cutting back alpha due to evaluation error
Warning: Cutting back alpha due to evaluation error
Warning: Cutting back alpha due to evaluation error
Warning: Cutting back alpha due to evaluation error
Warning: Cutting back alpha due to evaluation error
  58  1.2533126e+00 1.15e-06 1.44e+00 -11.0 1.37e-03    -  1.00e+00 1.56e-02h  7
Warning: Cutting back alpha due to evaluation error
Warning: Cutting back alpha due to evaluation error
Warning: Cutting back alpha due to evaluation error
Warning: Cutting back alpha due to evaluation error
Warning: Cutting back alpha due to evaluation error
Warning: Cutting back alpha due to evaluation error
Warning: Cutting back alpha due to evaluation error
  59  1.2533126e+00 1.14e-06 1.43e+00 -11.0 1.69e-03    -  1.00e+00 7.81e-03h  8
Warning: Cutting back alpha due to evaluation error
Warning: Cutting back alpha due to evaluation error
Warning: Cutting back alpha due to evaluation error
Warning: Cutting back alpha due to evaluation error
Warning: Cutting back alpha due to evaluation error
Warning: Cutting back alpha due to evaluation error
Warning: Cutting back alpha due to evaluation error
Warning: Cutting back alpha due to evaluation error
Warning: Cutting back alpha due to evaluation error
Warning: Cutting back alpha due to evaluation error
Warning: Cutting back alpha due to evaluation error
Warning: Cutting back alpha due to evaluation error
Warning: Cutting back alpha due to evaluation error
iter    objective    inf_pr   inf_du lg(mu)  ||d||  lg(rg) alpha_du alpha_pr  ls
  60  1.2533126e+00 1.14e-06 1.43e+00 -11.0 1.65e-03    -  1.00e+00 1.22e-04h 14
Warning: Cutting back alpha due to evaluation error
Warning: Cutting back alpha due to evaluation error
Warning: Cutting back alpha due to evaluation error
Warning: Cutting back alpha due to evaluation error
Warning: Cutting back alpha due to evaluation error
Warning: Cutting back alpha due to evaluation error
Warning: Cutting back alpha due to evaluation error
Warning: Cutting back alpha due to evaluation error
Warning: Cutting back alpha due to evaluation error
Warning: Cutting back alpha due to evaluation error
Warning: Cutting back alpha due to evaluation error
Warning: Cutting back alpha due to evaluation error
  61  1.2533126e+00 1.14e-06 1.43e+00 -11.0 1.51e-03    -  1.00e+00 2.44e-04h 13
  62  1.2533125e+00 1.25e-06 3.01e-01 -11.0 1.76e-03    -  1.00e+00 1.00e+00h  1
  63  1.2533126e+00 8.16e-08 4.05e-05 -11.0 6.62e-04    -  1.00e+00 1.00e+00h  1

Number of Iterations....: 63

                                   (scaled)                 (unscaled)
Objective...............:   1.2533125650146790e+00    1.2533125650146790e+00
Dual infeasibility......:   4.0506679787528800e-05    4.0506679787528800e-05
Constraint violation....:   8.1636524928985210e-08    8.1636524928985210e-08
Complementarity.........:   1.0000000000000001e-11    1.0000000000000001e-11
Overall NLP error.......:   4.0506679787528800e-05    4.0506679787528800e-05


Number of objective function evaluations             = 75
Number of objective gradient evaluations             = 63
Number of equality constraint evaluations            = 210
Number of inequality constraint evaluations          = 0
Number of equality constraint Jacobian evaluations   = 64
Number of inequality constraint Jacobian evaluations = 0
Number of Lagrangian Hessian evaluations             = 0
Total CPU secs in IPOPT (w/o function evaluations)   =      0.107
Total CPU secs in NLP function evaluations           =      0.141

EXIT: Optimal Solution Found.
